10000   8   98   3   2   48   83   95   22   91   
12   10000   95   66   47   4   1   6   27   73   
97   29   10000   38   42   1   56   41   4   10   
78   5   40   10000   49   71   54   64   6   92   
71   95   23   24   10000   60   96   16   69   24   
51   76   26   55   48   10000   79   72   80   95   
42   34   21   71   17   12   10000   56   14   9   
83   80   60   83   97   46   70   10000   1   14   
49   15   38   4   48   51   11   91   10000   50   
50   5   1   80   94   21   69   61   69   10000   
